96
2
28 11 37 77 5 87 39 88 81 25 85 43 3 55 97 34 16 17 58 70 91 33 47 24 15 4 56 39 77 5 80 92 62 16 71 69 
21 53 33 51 16 70 67 12 8 64 84 74 3 39 51 26 92 26 29 64 5 35 46 6 77 13 85 42 1 87 86 84 53 27 74 77 
2 2 1 1 1 1 1 2 2 1 1 1 2 1 2 1 2 2 1 1 2 1 1 1 1 1 2 2 1 1 2 2 2 1 1 1 